c FILE /home/rafael/Documents/HappySet/MIHS/inputs/happygen/output/graph_d_regular_k4_p0.3_v100_20241127_084028.txt
c SOURCE This is a d-regular graph formed for the happy graph colouring problem.
c DESCRIPTION It was generated using the problem generator of Rhyd Lewis
c
c GRAPH STATS
c Seed                             = 2048155363
c Number of Nodes                  = 100
c Number of colours k              = 4
c Number of pre-assignments        = 30
c Degree of all vertices           = 6
c Density                          = 0.0606061
c 
c The degrees of nodes 1 to 100, respectively, are as follows 
c [6, 6, 6, 6, 6, 6, 6, 6, 6, 6, 6, 6, 6, 6, 6, 6, 6, 6, 6, 6, 6, 6, 6, 6, 6, 6, 
c  6, 6, 6, 6, 6, 6, 6, 6, 6, 6, 6, 6, 6, 6, 6, 6, 6, 6, 6, 6, 6, 6, 6, 6, 6, 
c  6, 6, 6, 6, 6, 6, 6, 6, 6, 6, 6, 6, 6, 6, 6, 6, 6, 6, 6, 6, 6, 6, 6, 6, 6, 
c  6, 6, 6, 6, 6, 6, 6, 6, 6, 6, 6, 6, 6, 6, 6, 6, 6, 6, 6, 6, 6, 6, 6, 6] 
c  
p edge 100 300 4
e 1 3
e 1 31
e 1 58
e 1 62
e 1 66
e 1 90
e 2 12
e 2 15
e 2 21
e 2 26
e 2 28
e 2 40
e 3 11
e 3 18
e 3 51
e 3 60
e 3 62
e 4 11
e 4 22
e 4 56
e 4 64
e 4 81
e 4 87
e 5 18
e 5 23
e 5 28
e 5 70
e 5 81
e 5 96
e 6 14
e 6 37
e 6 45
e 6 54
e 6 77
e 6 88
e 7 10
e 7 24
e 7 26
e 7 28
e 7 53
e 7 84
e 8 16
e 8 22
e 8 29
e 8 39
e 8 79
e 8 84
e 9 15
e 9 16
e 9 24
e 9 38
e 9 75
e 9 95
e 10 21
e 10 37
e 10 44
e 10 64
e 10 100
e 11 29
e 11 36
e 11 42
e 11 84
e 12 13
e 12 14
e 12 55
e 12 77
e 12 81
e 13 20
e 13 42
e 13 51
e 13 56
e 13 70
e 14 47
e 14 52
e 14 53
e 14 98
e 15 18
e 15 33
e 15 58
e 15 62
e 16 19
e 16 25
e 16 51
e 16 80
e 17 25
e 17 34
e 17 38
e 17 65
e 17 82
e 17 89
e 18 38
e 18 39
e 18 54
e 19 50
e 19 60
e 19 81
e 19 90
e 19 91
e 20 61
e 20 67
e 20 87
e 20 93
e 20 98
e 21 34
e 21 39
e 21 52
e 21 75
e 22 43
e 22 63
e 22 76
e 22 88
e 23 35
e 23 46
e 23 62
e 23 63
e 23 70
e 24 30
e 24 49
e 24 74
e 24 95
e 25 47
e 25 70
e 25 72
e 25 82
e 26 35
e 26 61
e 26 64
e 26 83
e 27 50
e 27 51
e 27 71
e 27 76
e 27 81
e 27 92
e 28 44
e 28 82
e 28 85
e 29 48
e 29 49
e 29 52
e 29 98
e 30 47
e 30 65
e 30 74
e 30 83
e 30 88
e 31 44
e 31 53
e 31 55
e 31 77
e 31 84
e 32 36
e 32 41
e 32 50
e 32 59
e 32 87
e 32 96
e 33 42
e 33 55
e 33 57
e 33 69
e 33 78
e 34 66
e 34 91
e 34 94
e 34 97
e 35 65
e 35 72
e 35 80
e 35 94
e 36 63
e 36 69
e 36 87
e 36 89
e 37 46
e 37 57
e 37 58
e 37 73
e 38 39
e 38 69
e 38 100
e 39 57
e 39 63
e 40 54
e 40 56
e 40 76
e 40 86
e 40 87
e 41 43
e 41 65
e 41 70
e 41 84
e 41 88
e 42 77
e 42 92
e 42 98
e 43 44
e 43 45
e 43 49
e 43 100
e 44 73
e 44 89
e 45 61
e 45 75
e 45 90
e 45 99
e 46 48
e 46 53
e 46 66
e 46 96
e 47 69
e 47 76
e 47 93
e 48 57
e 48 67
e 48 68
e 48 86
e 49 67
e 49 69
e 49 74
e 50 64
e 50 74
e 50 76
e 51 58
e 51 79
e 52 55
e 52 71
e 52 94
e 53 61
e 53 65
e 54 55
e 54 80
e 54 98
e 55 82
e 56 72
e 56 78
e 56 88
e 57 73
e 57 83
e 58 73
e 58 74
e 59 61
e 59 72
e 59 79
e 59 81
e 59 86
e 60 74
e 60 79
e 60 92
e 60 97
e 61 78
e 62 84
e 62 92
e 63 86
e 63 89
e 64 78
e 64 99
e 65 87
e 66 71
e 66 80
e 66 83
e 67 68
e 67 85
e 67 94
e 68 75
e 68 78
e 68 86
e 68 99
e 69 80
e 70 93
e 71 83
e 71 89
e 71 90
e 72 91
e 72 95
e 73 78
e 73 96
e 75 79
e 75 98
e 76 96
e 77 85
e 77 93
e 79 94
e 80 97
e 82 93
e 82 100
e 83 88
e 85 90
e 85 91
e 85 97
e 86 97
e 89 92
e 90 94
e 91 99
e 91 100
e 92 93
e 95 97
e 95 99
e 95 100
e 96 99
n 1 2
n 3 2
n 6 4
n 10 3
n 13 1
n 18 2
n 20 1
n 22 1
n 23 4
n 25 2
n 26 3
n 33 2
n 38 2
n 40 1
n 44 3
n 52 3
n 56 1
n 57 2
n 60 2
n 64 3
n 65 2
n 76 1
n 77 4
n 81 3
n 82 2
n 91 2
n 92 2
n 94 3
n 95 2
n 96 1
